# Solution for model r5_t18_m9_8
# Finished Task: 18 / 18
# Makespan: 554.0, Total Distance: 394.0, Total Time: 6.2842
# R O S F
0 0 22 6.0 6.0
1 1 5 107.0 107.0
2 2 21 11.0 11.0
3 3 17 50.0 50.0
4 4 12 73.0 73.0
5 1 7 147.0 183.0
6 3 11 366.0 391.0
7 1 8 241.0 265.0
8 1 -1 495.0 534.0
9 2 -1 534.0 554.0
10 4 19 432.0 455.0
11 3 -1 523.0 554.0
12 4 10 391.0 424.0
13 2 9 459.0 490.0
14 2 13 391.0 418.0
15 3 16 250.0 273.0
16 3 6 291.0 329.0
17 3 15 179.0 218.0
18 4 -1 533.0 554.0
19 4 18 490.0 523.0
20 2 14 342.0 369.0
21 2 20 218.0 250.0
22 0 -1 276.0 312.0
